10	5
0	4	2	3	1	4
1	1	8
2	1	9
3	1	5
4	2	10	7
5	3	7	9	6
6	1	11
7	1	11
8	1	11
9	1	11
10	1	11
11	0
0	0	0	0	0	0	0
1	3	1	4	1	4	4
2	9	4	3	4	2	2
3	5	2	3	1	1	1
4	10	2	5	1	5	2
5	10	5	5	1	2	5
6	10	4	2	5	2	5
7	4	3	4	2	4	4
8	4	1	2	1	2	3
9	7	1	5	4	5	4
10	8	2	5	4	5	2
11	0	0	0	0	0	0
6	8	6	7	7
